proyfinal/src/viki/013/experimentInOfficeAgust.take6.output/86b8e78b-ad8e-4a5c-997d-f1a23d9511f7.als.out
Reading from standard input... Use '--help' for help.
============================[ Problem Statistics ]=============================
|                                                                             |
|  Number of variables:         87638                                         |
|  Number of clauses:          161767                                         |
|  Parse time:                   0.03 s                                       |
|                                                                             |
============================[ Search Statistics ]==============================
| Conflicts |          ORIGINAL         |          LEARNT          | Progress |
|           |    Vars  Clauses Literals |    Limit  Clauses Lit/Cl |          |
===============================================================================
|       100 |   62718   106367   265941 |    39001      100      8 | 28.435 % |
|       250 |   62717   106323   265851 |    42901      249     47 | 28.436 % |
|       475 |   62717   106323   265851 |    47191      474     58 | 28.436 % |
|       812 |   62717   106323   265851 |    51910      811     84 | 28.436 % |
|      1318 |   62717   106323   265851 |    57101     1317     98 | 28.436 % |
|      2077 |   62689   106213   265594 |    62811     1898     92 | 28.468 % |
|      3216 |   62689   106210   265588 |    69093     3037    126 | 28.468 % |
|      4924 |   48202    63798   161630 |    76002     3973     75 | 44.999 % |
|      7486 |   47694    61851   156886 |    83602     5596     62 | 45.578 % |
===============================================================================
restarts              : 42
conflicts             : 9664           (7056 /sec)
decisions             : 35826          (0.00 % random) (26157 /sec)
propagations          : 14765420       (10780512 /sec)
conflict literals     : 619431         (42.98 % deleted)
Memory used           : 30.41 MB
CPU time              : 1.36964 s

UNSATISFIABLE
